results/res_prop_muc/res_Cimatti_mathsat_cores/QF_UF/NEQ032_size4.smt.smt2.out

real	0m2.844s
user	0m2.735s
sys	0m0.065s
