results/res_prop_muc/res_Cimatti_mathsat_cores/QF_UF/NEQ032_size4.smt.smt2.res
unsat
( _c0
  _c1
  _c10
  _c11
  _c12
  _c13
  _c14
  _c15
  _c16
  _c161
  _c162
  _c163
  _c164
  _c165
  _c166
  _c167
  _c168
  _c169
  _c17
  _c170
  _c171
  _c172
  _c173
  _c174
  _c175
  _c176
  _c177
  _c178
  _c179
  _c18
  _c180
  _c181
  _c182
  _c183
  _c184
  _c185
  _c186
  _c187
  _c188
  _c189
  _c19
  _c190
  _c191
  _c192
  _c193
  _c194
  _c195
  _c196
  _c197
  _c198
  _c199
  _c2
  _c20
  _c200
  _c201
  _c202
  _c203
  _c204
  _c205
  _c206
  _c207
  _c208
  _c209
  _c21
  _c22
  _c23
  _c24
  _c25
  _c26
  _c27
  _c274
  _c275
  _c276
  _c277
  _c278
  _c279
  _c28
  _c280
  _c281
  _c282
  _c283
  _c284
  _c285
  _c286
  _c287
  _c288
  _c289
  _c29
  _c290
  _c291
  _c292
  _c293
  _c294
  _c295
  _c296
  _c297
  _c298
  _c299
  _c3
  _c30
  _c300
  _c301
  _c302
  _c303
  _c304
  _c305
  _c306
  _c307
  _c308
  _c309
  _c31
  _c310
  _c311
  _c312
  _c313
  _c314
  _c315
  _c316
  _c317
  _c318
  _c319
  _c32
  _c320
  _c321
  _c322
  _c323
  _c324
  _c325
  _c326
  _c33
  _c34
  _c35
  _c359
  _c36
  _c360
  _c361
  _c362
  _c363
  _c364
  _c365
  _c366
  _c367
  _c368
  _c369
  _c37
  _c370
  _c371
  _c372
  _c373
  _c374
  _c38
  _c39
  _c4
  _c40
  _c407
  _c408
  _c409
  _c41
  _c410
  _c411
  _c412
  _c413
  _c414
  _c415
  _c416
  _c417
  _c418
  _c419
  _c42
  _c420
  _c421
  _c422
  _c43
  _c44
  _c45
  _c455
  _c456
  _c457
  _c458
  _c459
  _c46
  _c460
  _c461
  _c462
  _c463
  _c464
  _c465
  _c466
  _c467
  _c468
  _c469
  _c47
  _c470
  _c48
  _c49
  _c495
  _c496
  _c497
  _c498
  _c499
  _c5
  _c50
  _c500
  _c501
  _c502
  _c503
  _c51
  _c52
  _c53
  _c54
  _c55
  _c56
  _c57
  _c58
  _c59
  _c6
  _c60
  _c61
  _c62
  _c63
  _c64
  _c65
  _c66
  _c67
  _c68
  _c69
  _c7
  _c70
  _c71
  _c72
  _c73
  _c74
  _c75
  _c76
  _c77
  _c78
  _c79
  _c8
  _c80
  _c9 )
